g3 0 1 0	# problem coshfun
 61 20 1 0 0	# vars, constraints, objectives, ranges, eqns
 20 0	# nonlinear constraints, objectives
 0 0	# network constraints: nonlinear, linear
 60 0 0	# nonlinear vars in constraints, objectives, both
 0 0 0 1	# linear network variables; functions; arith, flags
 0 0 0 0 0	# discrete variables: binary, integer, nonlinear (b,c,o)
 118 1	# nonzeros in Jacobian, gradients
 0 0	# max name lengths: constraints, variables
 0 0 0 0 0	# common exprs: b,c,o,c1,o1
b
3
3
3
3
3
3
3
3
3
3
3
3
3
3
3
3
3
3
3
3
3
3
3
3
3
3
3
3
3
3
3
3
3
3
3
3
3
3
3
3
3
3
3
3
3
3
3
3
3
3
3
3
3
3
3
3
3
3
3
3
3
r
2 0
2 0
2 0
2 0
2 0
2 0
2 0
2 0
2 0
2 0
2 0
2 0
2 0
2 0
2 0
2 0
2 0
2 0
2 0
2 0
C0
o16
o54
3
o2
v2
v2
o45
v1
o2
o2
o2
n2
v0
v0
v2
C1
o16
o54
3
o2
v5
v5
o45
v4
o2
o2
o2
n2
v3
v3
v5
C2
o16
o54
3
o2
v8
v8
o45
v7
o2
o2
o2
n2
v6
v6
v8
C3
o16
o54
3
o2
v11
v11
o45
v10
o2
o2
o2
n2
v9
v9
v11
C4
o16
o54
3
o2
v14
v14
o45
v13
o2
o2
o2
n2
v12
v12
v14
C5
o16
o54
3
o2
v17
v17
o45
v16
o2
o2
o2
n2
v15
v15
v17
C6
o16
o54
3
o2
v20
v20
o45
v19
o2
o2
o2
n2
v18
v18
v20
C7
o16
o54
3
o2
v23
v23
o45
v22
o2
o2
o2
n2
v21
v21
v23
C8
o16
o54
3
o2
v26
v26
o45
v25
o2
o2
o2
n2
v24
v24
v26
C9
o16
o54
3
o2
v29
v29
o45
v28
o2
o2
o2
n2
v27
v27
v29
C10
o16
o54
3
o2
v32
v32
o45
v31
o2
o2
o2
n2
v30
v30
v32
C11
o16
o54
3
o2
v35
v35
o45
v34
o2
o2
o2
n2
v33
v33
v35
C12
o16
o54
3
o2
v38
v38
o45
v37
o2
o2
o2
n2
v36
v36
v38
C13
o16
o54
3
o2
v41
v41
o45
v40
o2
o2
o2
n2
v39
v39
v41
C14
o16
o54
3
o2
v44
v44
o45
v43
o2
o2
o2
n2
v42
v42
v44
C15
o16
o54
3
o2
v47
v47
o45
v46
o2
o2
o2
n2
v45
v45
v47
C16
o16
o54
3
o2
v50
v50
o45
v49
o2
o2
o2
n2
v48
v48
v50
C17
o16
o54
3
o2
v53
v53
o45
v52
o2
o2
o2
n2
v51
v51
v53
C18
o16
o54
3
o2
v56
v56
o45
v55
o2
o2
o2
n2
v54
v54
v56
C19
o16
o54
3
o2
v59
v59
o45
v58
o2
o2
o2
n2
v57
v57
v59
O0 0
n0
k60
2
3
4
6
7
9
11
12
14
16
17
19
21
22
24
26
27
29
31
32
34
36
37
39
41
42
44
46
47
49
51
52
54
56
57
59
61
62
64
66
67
69
71
72
74
76
77
79
81
82
84
86
87
89
91
92
94
95
96
98
J0 5
0 0
1 0
2 2
5 1
60 1
J1 6
0 -1
3 0
4 0
5 2
8 1
60 1
J2 6
3 -1
6 0
7 0
8 2
11 1
60 1
J3 6
6 -1
9 0
10 0
11 2
14 1
60 1
J4 6
9 -1
12 0
13 0
14 2
17 1
60 1
J5 6
12 -1
15 0
16 0
17 2
20 1
60 1
J6 6
15 -1
18 0
19 0
20 2
23 1
60 1
J7 6
18 -1
21 0
22 0
23 2
26 1
60 1
J8 6
21 -1
24 0
25 0
26 2
29 1
60 1
J9 6
24 -1
27 0
28 0
29 2
32 1
60 1
J10 6
27 -1
30 0
31 0
32 2
35 1
60 1
J11 6
30 -1
33 0
34 0
35 2
38 1
60 1
J12 6
33 -1
36 0
37 0
38 2
41 1
60 1
J13 6
36 -1
39 0
40 0
41 2
44 1
60 1
J14 6
39 -1
42 0
43 0
44 2
47 1
60 1
J15 6
42 -1
45 0
46 0
47 2
50 1
60 1
J16 6
45 -1
48 0
49 0
50 2
53 1
60 1
J17 6
48 -1
51 0
52 0
53 2
56 1
60 1
J18 6
51 -1
54 0
55 0
56 2
59 1
60 1
J19 5
54 -1
57 0
58 0
59 2
60 1
G0 1
60 1
